Normalized Data/p02_15_normalized_split0.vrp
NAME:p02_15_NORMALIZED_split
BEST_KNOWN: 0
COMMENT: 0
DIMENSION: 276
CAPACITY: 100
EDGE_WEIGHT_FORMAT: FUNCTION
EDGE_WEIGHT_TYPE: EXACT_2D
NODE_COORD_SECTION
1 0.00000 0.00000
2 -9 10
3 -9 10
4 -9 10
5 -9 10
6 -42 -27
7 -42 -27
8 -42 -27
9 -42 -27
10 -42 -27
11 -38 -6
12 -38 -6
13 -38 -6
14 -38 -6
15 -38 -6
16 12 19
17 12 19
18 12 19
19 12 19
20 12 19
21 33 50
22 33 50
23 33 50
24 46 18
25 46 18
26 46 18
27 46 18
28 46 18
29 27 -28
30 27 -28
31 27 -28
32 -7 -13
33 -7 -13
34 -7 -13
35 -21 -21
36 -21 -21
37 -21 -21
38 -21 -21
39 -21 -21
40 -21 -21
41 -45 -50
42 -45 -50
43 -45 -50
44 19 50
45 -27 14
46 -27 14
47 -27 14
48 -27 14
49 -27 14
50 -27 14
51 -50 38
52 -50 38
53 -50 38
54 -50 38
55 -28 3
56 -28 3
57 -28 3
58 -22 4
59 -22 4
60 -22 4
61 25 -49
62 25 -49
63 -34 34
64 -34 34
65 -34 34
66 -3 -29
67 -3 -29
68 -43 -16
69 -43 -16
70 13 -3
71 13 -3
72 13 -3
73 13 -3
74 -22 -14
75 -22 -14
76 -22 -14
77 -22 -14
78 -22 -14
79 27 -24
80 27 -24
81 27 -24
82 -33 6
83 -33 6
84 37 45
85 37 45
86 37 45
87 37 45
88 37 45
89 10 38
90 10 38
91 10 38
92 -13 9
93 -13 9
94 -13 9
95 -13 9
96 13 25
97 13 25
98 13 25
99 49 -26
100 49 -26
101 49 -26
102 49 -26
103 -16 43
104 -16 43
105 -16 43
106 -16 43
107 -16 43
108 -21 -37
109 -21 -37
110 -21 -37
111 -21 -37
112 -21 -37
113 -6 21
114 -6 21
115 -6 21
116 -6 21
117 33 -27
118 33 -27
119 29 39
120 29 39
121 29 39
122 29 39
123 -29 -28
124 -29 -28
125 -29 -28
126 -41 5
127 -41 5
128 30 3
129 30 3
130 30 3
131 -45 -38
132 -45 -38
133 -45 -38
134 -45 -38
135 -45 -38
136 -26 -43
137 -26 -16
138 -26 -16
139 -26 -16
140 -26 -16
141 -1 39
142 -1 39
143 -1 39
144 -1 39
145 -1 39
146 -1 39
147 -30 -11
148 -30 -11
149 -30 -11
150 -30 -11
151 -30 -11
152 13 41
153 13 41
154 13 41
155 -16 -1
156 -16 -1
157 -47 -32
158 -47 -32
159 -47 -32
160 -47 -32
161 41 -32
162 41 -32
163 41 -32
164 41 -32
165 -48 -19
166 -48 -19
167 -48 -19
168 36 -48
169 36 -48
170 36 26
171 36 26
172 36 26
173 36 26
174 -20 -1
175 -20 -1
176 -20 -1
177 -20 -1
178 30 -16
179 30 -16
180 30 -16
181 -46 -44
182 -46 -44
183 49 5
184 49 5
185 26 -28
186 26 -28
187 26 -28
188 26 -28
189 26 -28
190 -17 -16
191 -17 -16
192 -17 -16
193 25 -7
194 25 -7
195 34 50
196 45 -21
197 45 -21
198 45 -21
199 45 -21
200 45 -21
201 11 19
202 11 19
203 11 19
204 11 19
205 11 19
206 10 28
207 10 28
208 10 28
209 10 28
210 -36 2
211 -36 2
212 -36 2
213 23 36
214 23 36
215 23 36
216 41 6
217 41 6
218 41 6
219 41 6
220 41 6
221 13 -23
222 13 -23
223 13 -23
224 31 -21
225 31 -21
226 31 -21
227 3 -3
228 3 -3
229 3 -3
230 3 -3
231 3 -3
232 3 -3
233 3 -3
234 9 -22
235 9 -22
236 9 -22
237 9 -22
238 9 -22
239 9 -22
240 42 34
241 42 34
242 44 -3
243 44 -3
244 44 -3
245 44 -3
246 44 -3
247 44 -3
248 -19 31
249 -19 31
250 -19 31
251 -19 31
252 -19 31
253 -32 -24
254 -32 -24
255 -32 -24
256 -32 -24
257 19 -5
258 -8 -6
259 -8 -6
260 -44 31
261 -44 31
262 -44 31
263 -44 31
264 -44 31
265 -44 31
266 -44 31
267 -20 12
268 -20 12
269 -20 12
270 -20 12
271 -20 12
272 -3 11
273 -3 11
274 -3 11
275 -3 11
276 -3 11
DEMAND_SECTION
1 0
2 20
3 20
4 1
5 1
6 20
7 20
8 5
9 1
10 1
11 10
12 1
13 1
14 1
15 1
16 20
17 10
18 5
19 1
20 1
21 10
22 1
23 1
24 20
25 20
26 5
27 1
28 1
29 20
30 20
31 10
32 20
33 5
34 1
35 20
36 20
37 1
38 1
39 1
40 1
41 20
42 20
43 10
44 20
45 10
46 5
47 1
48 1
49 1
50 1
51 20
52 10
53 1
54 1
55 20
56 20
57 5
58 20
59 10
60 5
61 20
62 10
63 20
64 20
65 10
66 10
67 5
68 10
69 5
70 20
71 10
72 1
73 1
74 20
75 20
76 5
77 1
78 1
79 10
80 1
81 1
82 20
83 1
84 20
85 10
86 5
87 1
88 1
89 20
90 1
91 1
92 20
93 20
94 1
95 1
96 20
97 20
98 5
99 20
100 10
101 1
102 1
103 20
104 20
105 1
106 1
107 1
108 20
109 10
110 5
111 1
112 1
113 20
114 10
115 1
116 1
117 10
118 5
119 20
120 10
121 1
122 1
123 10
124 1
125 1
126 20
127 20
128 20
129 20
130 5
131 20
132 10
133 5
134 1
135 1
136 20
137 20
138 5
139 1
140 1
141 20
142 20
143 1
144 1
145 1
146 1
147 10
148 1
149 1
150 1
151 1
152 20
153 20
154 5
155 10
156 5
157 10
158 5
159 1
160 1
161 20
162 20
163 1
164 1
165 20
166 10
167 5
168 20
169 10
170 10
171 5
172 1
173 1
174 20
175 20
176 1
177 1
178 10
179 1
180 1
181 20
182 20
183 20
184 20
185 10
186 1
187 1
188 1
189 1
190 20
191 20
192 1
193 20
194 1
195 20
196 10
197 5
198 1
199 1
200 1
201 20
202 5
203 1
204 1
205 1
206 20
207 10
208 5
209 1
210 20
211 20
212 10
213 20
214 10
215 1
216 10
217 5
218 1
219 1
220 1
221 10
222 5
223 1
224 20
225 1
226 1
227 20
228 20
229 5
230 1
231 1
232 1
233 1
234 20
235 10
236 5
237 1
238 1
239 1
240 20
241 20
242 20
243 10
244 1
245 1
246 1
247 1
248 20
249 20
250 5
251 1
252 1
253 20
254 5
255 1
256 1
257 20
258 20
259 5
260 20
261 20
262 5
263 1
264 1
265 1
266 1
267 20
268 20
269 1
270 1
271 1
272 10
273 5
274 1
275 1
276 1
DEPOT_SECTION
1
-1
EOF