Normalized Data/p02_15_normalized_split0.sol
275 -8 9 5 7 6 156 158 159 157 134 131 130 -16 18 121 120 118 119 240 239 169 170 172 171 -25 23 24 26 27 129 127 128 -33 31 32 65 66 234 235 233 237 238 236 221 222 220 -38 36 39 37 35 34 191 189 190 -40 42 41 181 180 133 132 -44 49 47 48 46 45 261 259 262 263 264 260 265 50 52 51 53 -55 56 54 173 174 154 155 -57 58 59 266 267 270 269 268 92 93 94 -60 61 167 168 30 29 78 -63 62 64 247 251 248 249 250 -69 72 71 70 256 15 17 19 204 200 -80 79 117 162 163 160 161 101 99 100 98 198 199 196 197 195 -81 82 126 125 210 211 -84 87 85 86 83 194 20 21 22 43 208 206 -88 90 89 151 152 153 214 212 213 -91 3 4 2 1 275 274 272 271 273 -108 107 109 111 110 135 122 124 123 253 254 252 255 -112 205 207 96 95 97 203 202 201 -114 113 115 106 102 105 104 103 145 142 140 144 143 141 -139 137 138 136 75 74 73 76 77 258 257 -147 149 146 150 148 67 68 166 165 164 10 12 11 13 14 209 176 175 -185 188 187 186 184 28 116 224 225 223 179 178 177 193 192 -215 218 216 219 217 183 182 242 245 246 241 244 243 -228 230 231 229 226 227 232 0 





OBJ=
2277.916
BEST_KNOWN=
0.000